data/solutions/planning/wellformed/moderate/sequential/wellformed_moderate_instance8_cplex.sol
Elapsed time: 0.02
Nodes explored: -
Nodes left: -
Relative gap: -
Upper bound: 7287.0
Lower bound: -
C[0]=1041.0
C[1]=1041.0
C[2]=1041.0
y[0]=2
y[1]=2
y[2]=1
y[3]=0
y[4]=1
y[5]=2
y[6]=2
y[7]=1
y[8]=2
y[9]=2
y[10]=0
y[11]=1
y[12]=0
y[13]=2
y[14]=2
y[15]=0
y[16]=1
y[17]=0
y[18]=0
y[19]=0
y[20]=0
y[21]=1
y[22]=2
y[23]=1
y[24]=0
y[25]=2
y[26]=1
y[27]=1
y[28]=1
y[29]=2
