data/solutions/planning/wellformed/moderate/sequential/wellformed_moderate_instance8_cplex.log
Found incumbent of value 3123.000000 after 0.00 sec. (0.01 ticks)
Tried aggregator 2 times.
Aggregator did 2 substitutions.
Reduced MIP has 33 rows, 91 columns, and 183 nonzeros.
Reduced MIP has 90 binaries, 0 generals, 0 SOSs, and 0 indicators.
Presolve time = 0.00 sec. (0.22 ticks)
Probing fixed 0 vars, tightened 3 bounds.
Probing time = 0.00 sec. (0.09 ticks)
Tried aggregator 1 time.
Reduced MIP has 33 rows, 91 columns, and 183 nonzeros.
Reduced MIP has 90 binaries, 1 generals, 0 SOSs, and 0 indicators.
Presolve time = 0.00 sec. (0.12 ticks)
Probing time = 0.00 sec. (0.06 ticks)
Clique table members: 30.
MIP emphasis: balance optimality and feasibility.
MIP search method: dynamic search.
Parallel mode: none, using 1 thread.
Root relaxation solution time = 0.00 sec. (0.09 ticks)

        Nodes                                         Cuts/
   Node  Left     Objective  IInf  Best Integer    Best Bound    ItCnt     Gap

*     0+    0                         3123.0000        0.0000           100.00%
      0     0     1041.0000     4     3123.0000     1041.0000        9   66.67%
*     0+    0                         1191.0000     1041.0000            12.59%
      0     0     1041.0000     6     1191.0000       Cuts: 7       17   12.59%
      0     0     1041.0000     8     1191.0000       Cuts: 3       25   12.59%
*     0+    0                         1131.0000     1041.0000             7.96%
*     0+    0                         1044.0000     1041.0000             0.29%
      0     2     1041.0000     8     1044.0000     1041.0000       25    0.29%
Elapsed time = 0.00 sec. (2.16 ticks, tree = 0.01 MB, solutions = 4)
*    30+   20                         1043.0000     1041.0000             0.19%
*   281     1      integral     0     1041.0000     1041.0000      608    0.00%

Cover cuts applied:  13
Zero-half cuts applied:  1
Gomory fractional cuts applied:  1

Root node processing (before b&c):
  Real time             =    0.00 sec. (2.16 ticks)
Sequential b&c:
  Real time             =    0.02 sec. (11.85 ticks)
                          ------------
Total (root+branch&cut) =    0.02 sec. (14.00 ticks)
2 of 6 MIP starts provided solutions.
MIP start 'm1' defined initial solution with objective 1041.0000.
Tried aggregator 2 times.
MIP Presolve eliminated 1 rows and 0 columns.
Aggregator did 1 substitutions.
Reduced MIP has 34 rows, 92 columns, and 185 nonzeros.
Reduced MIP has 90 binaries, 0 generals, 0 SOSs, and 0 indicators.
Presolve time = 0.00 sec. (0.19 ticks)
Probing time = 0.00 sec. (0.06 ticks)
Cover probing fixed 0 vars, tightened 3 bounds.
Tried aggregator 1 time.
Reduced MIP has 34 rows, 92 columns, and 185 nonzeros.
Reduced MIP has 90 binaries, 2 generals, 0 SOSs, and 0 indicators.
Presolve time = 0.00 sec. (0.12 ticks)
Probing time = 0.00 sec. (0.05 ticks)
Clique table members: 30.
MIP emphasis: balance optimality and feasibility.
MIP search method: dynamic search.
Parallel mode: none, using 1 thread.
Root relaxation solution time = 0.00 sec. (0.07 ticks)

        Nodes                                         Cuts/
   Node  Left     Objective  IInf  Best Integer    Best Bound    ItCnt     Gap

*     0+    0                         1041.0000        0.0000           100.00%
      0     0        cutoff           1041.0000                      2    0.00%

Root node processing (before b&c):
  Real time             =    0.00 sec. (0.72 ticks)
Sequential b&c:
  Real time             =    0.00 sec. (0.00 ticks)
                          ------------
Total (root+branch&cut) =    0.00 sec. (0.72 ticks)
1 of 1 MIP starts provided solutions.
MIP start 'm1' defined initial solution with objective 1041.0000.
Tried aggregator 2 times.
MIP Presolve eliminated 3 rows and 0 columns.
Aggregator did 1 substitutions.
Reduced MIP has 34 rows, 92 columns, and 185 nonzeros.
Reduced MIP has 90 binaries, 0 generals, 0 SOSs, and 0 indicators.
Presolve time = 0.00 sec. (0.19 ticks)
Probing time = 0.00 sec. (0.06 ticks)
Cover probing fixed 0 vars, tightened 3 bounds.
Tried aggregator 1 time.
Reduced MIP has 34 rows, 92 columns, and 185 nonzeros.
Reduced MIP has 90 binaries, 2 generals, 0 SOSs, and 0 indicators.
Presolve time = 0.00 sec. (0.12 ticks)
Probing time = 0.00 sec. (0.05 ticks)
Clique table members: 30.
MIP emphasis: balance optimality and feasibility.
MIP search method: dynamic search.
Parallel mode: none, using 1 thread.
Root relaxation solution time = 0.00 sec. (0.07 ticks)

        Nodes                                         Cuts/
   Node  Left     Objective  IInf  Best Integer    Best Bound    ItCnt     Gap

*     0+    0                         1041.0000        0.0000           100.00%
      0     0        cutoff           1041.0000                      2    0.00%

Root node processing (before b&c):
  Real time             =    0.00 sec. (0.72 ticks)
Sequential b&c:
  Real time             =    0.00 sec. (0.00 ticks)
                          ------------
Total (root+branch&cut) =    0.00 sec. (0.72 ticks)
